; Copyright (c) 2026 The RIINA Authors. All rights reserved.
; Copyright (c) 2026 The RIINA Authors.
; Auto-generated from 02_FORMAL/coq/domains/V001_TerminationGuarantees.v (32 assertions)
; Generated by scripts/generate-full-stack.py
; Module: V001_TerminationGuarantees

(set-logic ALL)
(set-option :produce-models true)

; expr (matches Coq: Inductive expr)
(declare-datatypes ((expr 0)) (((EVar) (EConst) (EApp) (ELam) (ERec) (ECase))))

; sized_ty (matches Coq: Inductive sized_ty)
(declare-datatypes ((sized_ty 0)) (((STNat) (STList) (STTree) (STFun))))

; even_tree (matches Coq: Inductive even_tree)
(declare-datatypes ((even_tree 0)) (((ELeaf) (ENode) (OLeaf) (ONode))))

; NonTerminating (matches Coq: Inductive NonTerminating)
(declare-datatypes ((NonTerminating 0)) (((Loop))))

; structurally_smaller (matches Coq: Definition structurally_smaller)
(define-fun structurally_smaller () Prop true)

; structural_recursion (matches Coq: Definition structural_recursion)
(define-fun structural_recursion ((e expr)) Prop
  true)

; size_subtype (matches Coq: Definition size_subtype)
(define-fun size_subtype () Prop true)

; sized_wellformed (matches Coq: Definition sized_wellformed)
(define-fun sized_wellformed ((st sized_ty)) Prop
  true)

; size_less (matches Coq: Definition size_less)
(define-fun size_less () Prop true)

; ackermann (matches Coq: Definition ackermann)
(define-fun ackermann () Int true)

; pure (matches Coq: Definition pure)
(define-fun pure ((e expr)) Prop
  true)

; well_typed (matches Coq: Definition well_typed)
(define-fun well_typed ((e expr)) Prop
  true)

; is_value (matches Coq: Definition is_value)
(define-fun is_value ((e expr)) Prop
  true)

; check_termination (matches Coq: Definition check_termination)
(define-fun check_termination ((e expr)) Bool
  true)

; infer_size (matches Coq: Definition infer_size)
(define-fun infer_size ((e expr)) Size
  true)

; infer_measure (matches Coq: Definition infer_measure)
(define-fun infer_measure ((e expr)) Int
  true)

; explicitly_marked (matches Coq: Definition explicitly_marked)
(define-fun explicitly_marked ((e expr)) Prop
  true)

; V_001_01_structural_decrease (matches Coq: Theorem V_001_01_structural_decrease)
(assert (= true true)) ; V_001_01_structural_decrease [untranslatable]

; V_001_02_structural_termination (matches Coq: Theorem V_001_02_structural_termination)
(assert (= true true)) ; V_001_02_structural_termination [untranslatable]

; V_001_03_nat_structural (matches Coq: Theorem V_001_03_nat_structural)
(assert (= true true)) ; V_001_03_nat_structural [untranslatable]

; V_001_04_list_structural (matches Coq: Theorem V_001_04_list_structural)
(assert (= true true)) ; V_001_04_list_structural [untranslatable]

; V_001_05_tree_structural (matches Coq: Theorem V_001_05_tree_structural)
(assert (= true true)) ; V_001_05_tree_structural [untranslatable]

; V_001_06_mutual_structural (matches Coq: Theorem V_001_06_mutual_structural)
(assert (= true true)) ; V_001_06_mutual_structural [untranslatable]

; V_001_07_nested_structural (matches Coq: Theorem V_001_07_nested_structural)
(assert (= true true)) ; V_001_07_nested_structural [untranslatable]

; V_001_08_structural_checker_sound (matches Coq: Theorem V_001_08_structural_checker_sound)
(assert (= true true)) ; V_001_08_structural_checker_sound [untranslatable]

; V_001_09_sized_type_wellformed (matches Coq: Theorem V_001_09_sized_type_wellformed)
(assert (= true true)) ; V_001_09_sized_type_wellformed [untranslatable]

; V_001_10_size_decreases (matches Coq: Theorem V_001_10_size_decreases)
(assert (= true true)) ; V_001_10_size_decreases [untranslatable]

; V_001_11_sized_list_terminates (matches Coq: Theorem V_001_11_sized_list_terminates)
(assert (= true true)) ; V_001_11_sized_list_terminates [untranslatable]

; V_001_12_sized_tree_terminates (matches Coq: Theorem V_001_12_sized_tree_terminates)
(assert (= true true)) ; V_001_12_sized_tree_terminates [untranslatable]

; V_001_13_size_inference_correct (matches Coq: Theorem V_001_13_size_inference_correct)
(assert (= true true)) ; V_001_13_size_inference_correct [untranslatable]

; V_001_14_size_subtyping (matches Coq: Theorem V_001_14_size_subtyping)
(assert (= true true)) ; V_001_14_size_subtyping [untranslatable]

; V_001_15_sized_preservation (matches Coq: Theorem V_001_15_sized_preservation)
(assert (= true true)) ; V_001_15_sized_preservation [untranslatable]

; V_001_16_sized_composition (matches Coq: Theorem V_001_16_sized_composition)
(assert (= true true)) ; V_001_16_sized_composition [untranslatable]

; V_001_17_measure_wellformed (matches Coq: Theorem V_001_17_measure_wellformed)
(assert (= true true)) ; V_001_17_measure_wellformed [untranslatable]

; V_001_18_measure_decreases (matches Coq: Theorem V_001_18_measure_decreases)
(assert (= true true)) ; V_001_18_measure_decreases [untranslatable]

; V_001_19_lexicographic_wellformed (matches Coq: Theorem V_001_19_lexicographic_wellformed)
(assert (= true true)) ; V_001_19_lexicographic_wellformed [untranslatable]

; V_001_20_ackermann_terminates (matches Coq: Theorem V_001_20_ackermann_terminates)
(assert (= true true)) ; V_001_20_ackermann_terminates [untranslatable]

; V_001_21_complex_measure_sound (matches Coq: Theorem V_001_21_complex_measure_sound)
(assert (= true true)) ; V_001_21_complex_measure_sound [untranslatable]

; V_001_22_measure_inference (matches Coq: Theorem V_001_22_measure_inference)
(assert (= true true)) ; V_001_22_measure_inference [untranslatable]

; V_001_23_measure_composition (matches Coq: Theorem V_001_23_measure_composition)
(assert (= true true)) ; V_001_23_measure_composition [untranslatable]

; V_001_24_wellfounded_checker_sound (matches Coq: Theorem V_001_24_wellfounded_checker_sound)
(assert (= true true)) ; V_001_24_wellfounded_checker_sound [untranslatable]

; V_001_25_codata_productive (matches Coq: Theorem V_001_25_codata_productive)
(assert (= true true)) ; V_001_25_codata_productive [untranslatable]

; V_001_26_stream_productive (matches Coq: Theorem V_001_26_stream_productive)
(assert (= true true)) ; V_001_26_stream_productive [untranslatable]

; V_001_27_productivity_observe (matches Coq: Theorem V_001_27_productivity_observe)
(assert (= true true)) ; V_001_27_productivity_observe [untranslatable]

; V_001_28_guarded_recursion (matches Coq: Theorem V_001_28_guarded_recursion)
(assert (= true true)) ; V_001_28_guarded_recursion [untranslatable]

; V_001_29_codata_unfold (matches Coq: Theorem V_001_29_codata_unfold)
(assert (= true true)) ; V_001_29_codata_unfold [untranslatable]

; V_001_30_productive_composition (matches Coq: Theorem V_001_30_productive_composition)
(assert (= true true)) ; V_001_30_productive_composition [untranslatable]

; V_001_31_non_terminating_marked (matches Coq: Theorem V_001_31_non_terminating_marked)
(assert (= true true)) ; V_001_31_non_terminating_marked [untranslatable]

; V_001_32_strong_normalization (matches Coq: Theorem V_001_32_strong_normalization)
(assert (= true true)) ; V_001_32_strong_normalization [untranslatable]

; Verify all assertions are satisfiable
(check-sat)
(exit)
